s td 28 8 35
b 1 1
b 2 8 11
b 3 9 34
b 4 4 18 28
b 5 5 20 27
b 6 8 10 33
b 7 10 16 18 20
b 8 22 25 29
b 9 6 25 30
b 10 9 14 24 28
b 11 12 14 28 35
b 12 2 14 24 28 35
b 13 19 23 24 32
b 14 22 25 28 33
b 15 10 25 28 33
b 16 2 3 7 14 15 17 23 28
b 17 3 7 14 15 17 23 25 28
b 18 6 7 15 17 23 25
b 19 6 15 17 23 26
b 20 13 15 23 26
b 21 7 14 15 17 20 23 25 28
b 22 15 17 18 20 23 25 28
b 23 10 17 18 20 25 28
b 24 7 14 15 20 31
b 25 14 20 27 31
b 26 2 14 17 21
b 27 2 7 14 15 17 23 24 28
b 28 2 7 14 23 24 32
1 2
2 6
3 10
4 22
5 25
6 15
7 23
8 14
9 18
10 27
11 12
12 27
13 28
14 15
15 23
16 17
16 26
16 27
17 18
17 21
18 19
19 20
21 22
21 24
22 23
24 25
27 28
